(set-info :source |printed by MathSAT|)
(declare-fun |!{$(in_main#0)<array1.1>}| () (Array Int Int))
(declare-fun |!{$(in_main#0)<array1.1>}.next| () (Array Int Int))
(declare-fun |!{$(in_main#0)<array2.2>}| () (Array Int Int))
(declare-fun |!{$(in_main#0)<array2.2>}.next| () (Array Int Int))
(declare-fun |!{$(in_main#0)<N>}| () Int)
(declare-fun |!{$(in_main#0)<N>}.next| () Int)
(declare-fun |!{$(in_main#0)<i>}| () Int)
(declare-fun |!{$(in_main#0)<i>}.next| () Int)
(declare-fun |!{$(in_main#0)<j>}| () Int)
(declare-fun |!{$(in_main#0)<j>}.next| () Int)
(declare-fun |!{$(in_main#0)<k>}| () Int)
(declare-fun |!{$(in_main#0)<k>}.next| () Int)
(declare-fun |!{$(in_main#0)<k#1>}| () Int)
(declare-fun |!{$(in_main#0)<k#1>}.next| () Int)
(declare-fun |!{$(in_main#0)<$(in___VERIFIER_nondet_int#0)<h#<__VERIFIER_nondet_int.return>>>}| () Int)
(declare-fun |!{$(in_main#0)<$(in___VERIFIER_nondet_int#2)<h#<__VERIFIER_nondet_int.return>>>}| () Int)
(declare-fun |!{$(in_main#0)<$(in___VERIFIER_nondet_int#3)<h#<__VERIFIER_nondet_int.return>>>}| () Int)
(declare-fun !pc () Int)
(declare-fun !pc.next () Int)
(declare-fun |%{$(in_main#0)<i>}#1| () Int)
(declare-fun |%{$(in_main#0)<j>}#1| () Int)
(declare-fun |%{$(in_main#0)<k#1>}#1| () Int)
(declare-fun |%{$(in_main#0)<array1.1>}#1| () (Array Int Int))
(declare-fun |%{$(in_main#0)<array2.2>}#1| () (Array Int Int))
(define-fun .def_40 () Int (! !pc :next !pc.next))
(define-fun .def_43 () Bool (! (= .def_40 2) :init true))
(define-fun .def_206 () Bool (= .def_40 43))
(define-fun .def_175 () Bool (= !pc.next 72))
(define-fun .def_209 () Bool (and .def_175 .def_206))
(define-fun .def_12 () Int (! |!{$(in_main#0)<N>}| :next |!{$(in_main#0)<N>}.next|))
(define-fun .def_201 () Bool (= .def_12 |!{$(in_main#0)<j>}.next|))
(define-fun .def_199 () Bool (= |!{$(in_main#0)<i>}.next| 0))
(define-fun .def_10 () (Array Int Int) (! |!{$(in_main#0)<array2.2>}| :next |!{$(in_main#0)<array2.2>}.next|))
(define-fun .def_93 () Bool (= .def_10 |!{$(in_main#0)<array2.2>}.next|))
(define-fun .def_8 () (Array Int Int) (! |!{$(in_main#0)<array1.1>}| :next |!{$(in_main#0)<array1.1>}.next|))
(define-fun .def_91 () Bool (= .def_8 |!{$(in_main#0)<array1.1>}.next|))
(define-fun .def_106 () Bool (and .def_91 .def_93))
(define-fun .def_95 () Bool (= .def_12 |!{$(in_main#0)<N>}.next|))
(define-fun .def_107 () Bool (and .def_95 .def_106))
(define-fun .def_200 () Bool (and .def_107 .def_199))
(define-fun .def_202 () Bool (and .def_200 .def_201))
(define-fun .def_18 () Int (! |!{$(in_main#0)<k>}| :next |!{$(in_main#0)<k>}.next|))
(define-fun .def_101 () Bool (= .def_18 |!{$(in_main#0)<k>}.next|))
(define-fun .def_203 () Bool (and .def_101 .def_202))
(define-fun .def_20 () Int (! |!{$(in_main#0)<k#1>}| :next |!{$(in_main#0)<k#1>}.next|))
(define-fun .def_103 () Bool (= .def_20 |!{$(in_main#0)<k#1>}.next|))
(define-fun .def_204 () Bool (and .def_103 .def_203))
(define-fun .def_182 () Bool (<= .def_12 .def_18))
(define-fun .def_205 () Bool (and .def_182 .def_204))
(define-fun .def_210 () Bool (and .def_205 .def_209))
(define-fun .def_77 () Bool (= !pc.next 43))
(define-fun .def_207 () Bool (and .def_77 .def_206))
(define-fun .def_193 () Int (* (- 1) |!{$(in_main#0)<k>}.next|))
(define-fun .def_194 () Int (+ .def_18 .def_193))
(define-fun .def_195 () Bool (= .def_194 (- 1)))
(define-fun .def_185 () (Array Int Int) (store .def_10 .def_18 |!{$(in_main#0)<$(in___VERIFIER_nondet_int#3)<h#<__VERIFIER_nondet_int.return>>>}|))
(define-fun .def_188 () Bool (= |!{$(in_main#0)<array2.2>}.next| .def_185))
(define-fun .def_184 () (Array Int Int) (store .def_8 .def_18 |!{$(in_main#0)<$(in___VERIFIER_nondet_int#2)<h#<__VERIFIER_nondet_int.return>>>}|))
(define-fun .def_187 () Bool (= |!{$(in_main#0)<array1.1>}.next| .def_184))
(define-fun .def_189 () Bool (and .def_187 .def_188))
(define-fun .def_190 () Bool (and .def_95 .def_189))
(define-fun .def_14 () Int (! |!{$(in_main#0)<i>}| :next |!{$(in_main#0)<i>}.next|))
(define-fun .def_97 () Bool (= .def_14 |!{$(in_main#0)<i>}.next|))
(define-fun .def_191 () Bool (and .def_97 .def_190))
(define-fun .def_16 () Int (! |!{$(in_main#0)<j>}| :next |!{$(in_main#0)<j>}.next|))
(define-fun .def_99 () Bool (= .def_16 |!{$(in_main#0)<j>}.next|))
(define-fun .def_192 () Bool (and .def_99 .def_191))
(define-fun .def_196 () Bool (and .def_192 .def_195))
(define-fun .def_197 () Bool (and .def_103 .def_196))
(define-fun .def_183 () Bool (not .def_182))
(define-fun .def_198 () Bool (and .def_183 .def_197))
(define-fun .def_208 () Bool (and .def_198 .def_207))
(define-fun .def_211 () Bool (or .def_208 .def_210))
(define-fun .def_174 () Bool (= .def_40 72))
(define-fun .def_131 () Bool (= !pc.next 90))
(define-fun .def_178 () Bool (and .def_131 .def_174))
(define-fun .def_170 () Bool (= |!{$(in_main#0)<k#1>}.next| 0))
(define-fun .def_108 () Bool (and .def_97 .def_107))
(define-fun .def_109 () Bool (and .def_99 .def_108))
(define-fun .def_110 () Bool (and .def_101 .def_109))
(define-fun .def_171 () Bool (and .def_110 .def_170))
(define-fun .def_147 () Bool (<= .def_14 .def_16))
(define-fun .def_144 () Bool (<= .def_16 0))
(define-fun .def_145 () Bool (not .def_144))
(define-fun .def_142 () Bool (<= .def_12 .def_14))
(define-fun .def_143 () Bool (not .def_142))
(define-fun .def_146 () Bool (and .def_143 .def_145))
(define-fun .def_148 () Bool (and .def_146 .def_147))
(define-fun .def_155 () Bool (not .def_148))
(define-fun .def_172 () Bool (and .def_155 .def_171))
(define-fun .def_179 () Bool (and .def_172 .def_178))
(define-fun .def_176 () Bool (and .def_174 .def_175))
(define-fun .def_163 () Int (* (- 1) |!{$(in_main#0)<j>}.next|))
(define-fun .def_164 () Int (+ .def_16 .def_163))
(define-fun .def_165 () Bool (= .def_164 1))
(define-fun .def_159 () Int (* (- 1) |!{$(in_main#0)<i>}.next|))
(define-fun .def_160 () Int (+ .def_14 .def_159))
(define-fun .def_161 () Bool (= .def_160 (- 1)))
(define-fun .def_151 () Int (+ .def_16 (- 1)))
(define-fun .def_152 () Int (select .def_10 .def_151))
(define-fun .def_149 () Int (select .def_10 .def_14))
(define-fun .def_150 () (Array Int Int) (store .def_8 .def_14 .def_149))
(define-fun .def_153 () (Array Int Int) (store .def_150 .def_151 .def_152))
(define-fun .def_156 () Bool (= |!{$(in_main#0)<array1.1>}.next| .def_153))
(define-fun .def_157 () Bool (and .def_93 .def_156))
(define-fun .def_158 () Bool (and .def_95 .def_157))
(define-fun .def_162 () Bool (and .def_158 .def_161))
(define-fun .def_166 () Bool (and .def_162 .def_165))
(define-fun .def_167 () Bool (and .def_101 .def_166))
(define-fun .def_168 () Bool (and .def_103 .def_167))
(define-fun .def_169 () Bool (and .def_148 .def_168))
(define-fun .def_177 () Bool (and .def_169 .def_176))
(define-fun .def_180 () Bool (or .def_177 .def_179))
(define-fun .def_135 () Bool (= !pc.next 0))
(define-fun .def_126 () Bool (= .def_40 90))
(define-fun .def_136 () Bool (and .def_126 .def_135))
(define-fun .def_80 () Bool (<= .def_12 .def_20))
(define-fun .def_118 () Bool (and .def_80 .def_91))
(define-fun .def_119 () Bool (and .def_93 .def_118))
(define-fun .def_120 () Bool (and .def_95 .def_119))
(define-fun .def_121 () Bool (and .def_97 .def_120))
(define-fun .def_122 () Bool (and .def_99 .def_121))
(define-fun .def_123 () Bool (and .def_101 .def_122))
(define-fun .def_124 () Bool (and .def_103 .def_123))
(define-fun .def_137 () Bool (and .def_124 .def_136))
(define-fun .def_132 () Bool (and .def_126 .def_131))
(define-fun .def_112 () Int (* (- 1) |!{$(in_main#0)<k#1>}.next|))
(define-fun .def_113 () Int (+ .def_20 .def_112))
(define-fun .def_114 () Bool (= .def_113 (- 1)))
(define-fun .def_115 () Bool (and .def_110 .def_114))
(define-fun .def_83 () Int (select .def_10 .def_20))
(define-fun .def_82 () Int (select .def_8 .def_20))
(define-fun .def_84 () Bool (= .def_82 .def_83))
(define-fun .def_85 () Int (ite .def_84 1 0))
(define-fun .def_86 () Bool (= .def_85 0))
(define-fun .def_87 () Bool (not .def_86))
(define-fun .def_116 () Bool (and .def_87 .def_115))
(define-fun .def_81 () Bool (not .def_80))
(define-fun .def_117 () Bool (and .def_81 .def_116))
(define-fun .def_133 () Bool (and .def_117 .def_132))
(define-fun .def_128 () Bool (= !pc.next 110))
(define-fun .def_129 () Bool (and .def_126 .def_128))
(define-fun .def_92 () Bool (and .def_86 .def_91))
(define-fun .def_94 () Bool (and .def_92 .def_93))
(define-fun .def_96 () Bool (and .def_94 .def_95))
(define-fun .def_98 () Bool (and .def_96 .def_97))
(define-fun .def_100 () Bool (and .def_98 .def_99))
(define-fun .def_102 () Bool (and .def_100 .def_101))
(define-fun .def_104 () Bool (and .def_102 .def_103))
(define-fun .def_105 () Bool (and .def_81 .def_104))
(define-fun .def_130 () Bool (and .def_105 .def_129))
(define-fun .def_134 () Bool (or .def_130 .def_133))
(define-fun .def_138 () Bool (or .def_134 .def_137))
(define-fun .def_78 () Bool (and .def_43 .def_77))
(define-fun .def_73 () Bool (= |!{$(in_main#0)<k#1>}.next| |%{$(in_main#0)<k#1>}#1|))
(define-fun .def_71 () Bool (= |!{$(in_main#0)<k>}.next| 0))
(define-fun .def_69 () Bool (= |!{$(in_main#0)<j>}.next| |%{$(in_main#0)<j>}#1|))
(define-fun .def_67 () Bool (= |!{$(in_main#0)<i>}.next| |%{$(in_main#0)<i>}#1|))
(define-fun .def_65 () Bool (= |!{$(in_main#0)<N>}.next| |!{$(in_main#0)<$(in___VERIFIER_nondet_int#0)<h#<__VERIFIER_nondet_int.return>>>}|))
(define-fun .def_63 () Bool (= |!{$(in_main#0)<array2.2>}.next| |%{$(in_main#0)<array2.2>}#1|))
(define-fun .def_62 () Bool (= |!{$(in_main#0)<array1.1>}.next| |%{$(in_main#0)<array1.1>}#1|))
(define-fun .def_64 () Bool (and .def_62 .def_63))
(define-fun .def_66 () Bool (and .def_64 .def_65))
(define-fun .def_68 () Bool (and .def_66 .def_67))
(define-fun .def_70 () Bool (and .def_68 .def_69))
(define-fun .def_72 () Bool (and .def_70 .def_71))
(define-fun .def_74 () Bool (and .def_72 .def_73))
(define-fun .def_57 () Bool (<= |!{$(in_main#0)<$(in___VERIFIER_nondet_int#0)<h#<__VERIFIER_nondet_int.return>>>}| 0))
(define-fun .def_58 () Bool (not .def_57))
(define-fun .def_59 () Int (ite .def_58 1 0))
(define-fun .def_60 () Bool (= .def_59 0))
(define-fun .def_61 () Bool (not .def_60))
(define-fun .def_75 () Bool (and .def_61 .def_74))
(define-fun .def_79 () Bool (and .def_75 .def_78))
(define-fun .def_139 () Bool (or .def_79 .def_138))
(define-fun .def_181 () Bool (or .def_139 .def_180))
(define-fun .def_212 () Bool (! (or .def_181 .def_211) :trans true))
(define-fun .def_140 () Bool (= .def_40 110))
(define-fun .def_213 () Bool (! (not .def_140) :invar-property 0 :invar-property-name ||))
(assert true)
